(set-logic ALL)
(declare-const k Int)
(declare-fun s () (_ BitVec k))
(declare-fun t () (_ BitVec k))
(assert (not (distinct (bvlshr s (bvudiv s (bvshl s s))) (bvshl s (bvlshr s (bvshl s s))))))
(check-sat)
